<number of tasks>
53

<cycle time>
2004

<task times>
1 971
2 142
3 142
4 142
5 103
6 96
7 99
8 1207
9 160
10 180
11 82
12 60
13 112
14 420
15 1556
16 236
17 259
18 125
19 601
20 80
21 80
22 70
23 89
24 89
25 105
26 330
27 132
28 69
29 99
30 70
31 70
32 158
33 191
34 70
35 53
36 50
37 125
38 353
39 70
40 128
41 65
42 1775
43 91
44 91
45 113
46 487
47 138
48 80
49 80
50 65
51 40
52 742
53 1085

<precedence relations>
1,2
1,3
1,4
1,5
1,6
1,7
2,36
3,36
4,9
5,9
6,9
7,9
8,9
9,10
10,11
11,12
12,13
12,14
12,15
13,16
13,17
13,18
14,22
15,16
15,17
16,29
16,30
16,31
17,19
18,42
19,20
19,21
19,22
20,23
21,24
22,25
23,36
24,36
25,26
26,27
27,28
28,29
28,30
28,31
28,32
28,33
28,34
29,35
30,35
31,35
32,35
33,35
34,35
35,36
36,37
37,38
37,39
37,40
38,41
39,41
40,41
41,42
42,43
42,44
42,45
42,46
42,47
43,48
44,49
45,51
45,52
46,50
47,51
47,52
48,51
48,52
49,51
49,52
50,51
50,52
51,53
52,53

<setup times forward>
1,8:107
2,8:107
2,9:107
2,10:107
2,11:107
2,12:107
2,13:107
2,14:37
2,15:41
2,16:37
2,17:41
2,18:107
2,19:37
2,20:26
2,21:26
2,22:37
2,23:26
2,24:26
2,25:37
2,26:37
2,27:37
2,28:37
2,29:26
2,30:26
2,31:26
2,32:26
2,33:26
2,34:26
2,35:26
2,36:26
3,8:107
3,9:107
3,10:107
3,11:107
3,12:107
3,13:107
3,14:37
3,15:41
3,16:37
3,17:41
3,18:107
3,19:37
3,20:26
3,21:26
3,22:37
3,23:26
3,24:26
3,25:37
3,26:37
3,27:37
3,28:37
3,29:26
3,30:26
3,31:26
3,32:26
3,33:26
3,34:26
3,35:26
3,36:26
4,8:107
4,9:107
5,8:107
5,9:107
6,8:107
6,9:107
7,8:107
7,9:107
8,1:107
8,2:107
8,3:107
8,4:107
8,5:107
8,6:107
8,7:107
9,2:107
9,3:107
10,2:107
10,3:107
11,2:107
11,3:107
12,2:107
12,3:107
12,14:70
12,15:148
13,2:107
13,3:107
13,14:70
13,15:148
13,16:70
13,17:148
14,2:37
14,3:37
14,13:70
14,15:78
14,17:78
14,18:70
14,20:11
14,21:11
14,23:11
14,24:11
15,2:41
15,3:41
15,13:148
15,14:78
15,16:78
15,18:148
16,2:37
16,3:37
16,17:78
16,18:70
16,20:11
16,21:11
16,23:11
16,24:11
16,29:11
16,30:11
16,31:11
16,32:11
16,33:11
16,34:11
17,2:41
17,3:41
17,14:78
17,16:78
17,18:148
17,19:78
18,2:107
18,3:107
18,14:70
18,15:148
18,16:70
18,17:148
18,19:70
18,20:81
18,21:81
18,22:70
18,23:81
18,24:81
18,25:70
18,26:70
18,27:70
18,28:70
18,29:81
18,30:81
18,31:81
18,32:81
18,33:81
18,34:81
18,35:81
18,36:81
18,37:81
18,38:81
18,39:81
18,40:167
18,41:167
18,42:167
19,2:37
19,3:37
19,18:70
19,20:11
19,21:11
20,2:26
20,3:26
20,14:11
20,16:11
20,18:81
20,22:11
20,25:11
20,26:11
20,27:11
20,28:11
21,2:26
21,3:26
21,14:11
21,16:11
21,18:81
21,22:11
21,25:11
21,26:11
21,27:11
21,28:11
22,2:37
22,3:37
22,18:70
22,20:11
22,21:11
22,23:11
22,24:11
23,2:26
23,3:26
23,14:11
23,16:11
23,18:81
23,22:11
23,25:11
23,26:11
23,27:11
23,28:11
24,2:26
24,3:26
24,14:11
24,16:11
24,18:81
24,22:11
24,25:11
24,26:11
24,27:11
24,28:11
25,2:37
25,3:37
25,18:70
25,20:11
25,21:11
25,23:11
25,24:11
26,2:37
26,3:37
26,18:70
26,20:11
26,21:11
26,23:11
26,24:11
27,2:37
27,3:37
27,18:70
27,20:11
27,21:11
27,23:11
27,24:11
28,2:37
28,3:37
28,18:70
28,20:11
28,21:11
28,23:11
28,24:11
28,29:11
28,30:11
28,31:11
28,32:11
28,33:11
28,34:11
29,2:26
29,3:26
29,18:81
30,2:26
30,3:26
30,18:81
31,2:26
31,3:26
31,18:81
32,2:26
32,3:26
32,16:11
32,18:81
33,2:26
33,3:26
33,16:11
33,18:81
34,2:26
34,3:26
34,16:11
34,18:81
35,2:26
35,3:26
35,18:81
36,18:81
37,18:81
37,40:86
38,18:81
38,40:86
38,41:86
39,18:81
39,40:86
39,41:86
40,18:167
40,38:86
40,39:86
41,18:167
42,43:55
42,44:55
42,45:55
42,46:55
42,47:55
43,50:88
44,50:88
45,50:88
45,51:88
45,52:88
46,50:88
47,50:88
47,51:88
47,52:88
48,50:88
48,51:88
48,52:88
49,50:88
49,51:88
49,52:88
50,43:88
50,44:88
50,45:88
50,47:88
50,48:88
50,49:88

<setup times backward>
1,1:36
2,1:36
2,2:36
2,3:36
2,4:36
2,5:36
2,6:36
2,7:36
2,15:77
2,17:77
2,20:10
2,21:10
2,23:10
2,24:10
2,29:10
2,30:10
2,31:10
2,32:10
2,33:10
2,34:10
2,35:10
3,1:36
3,2:36
3,3:36
3,4:36
3,5:36
3,6:36
3,7:36
3,15:77
3,17:77
3,20:10
3,21:10
3,23:10
3,24:10
3,29:10
3,30:10
3,31:10
3,32:10
3,33:10
3,34:10
3,35:10
4,1:36
4,2:36
4,3:36
4,4:36
4,5:36
4,6:36
4,7:36
5,1:36
5,2:36
5,3:36
5,4:36
5,5:36
5,6:36
5,7:36
6,1:36
6,2:36
6,3:36
6,4:36
6,5:36
6,6:36
6,7:36
7,1:36
7,2:36
7,3:36
7,4:36
7,5:36
7,6:36
7,7:36
8,1:143
8,2:143
8,3:143
8,4:143
8,5:143
8,6:143
8,7:143
8,8:36
9,1:143
9,2:143
9,3:143
9,4:143
9,5:143
9,6:143
9,7:143
9,8:36
9,9:36
10,1:143
10,2:143
10,3:143
10,4:143
10,5:143
10,6:143
10,7:143
10,8:36
10,9:36
10,10:36
11,1:143
11,2:143
11,3:143
11,4:143
11,5:143
11,6:143
11,7:143
11,8:36
11,9:36
11,10:36
11,11:36
12,1:143
12,2:143
12,3:143
12,4:143
12,5:143
12,6:143
12,7:143
12,8:36
12,9:36
12,10:36
12,11:36
12,12:36
13,1:143
13,2:143
13,3:143
13,4:143
13,5:143
13,6:143
13,7:143
13,8:36
13,9:36
13,10:36
13,11:36
13,12:36
13,13:36
13,14:106
13,15:184
14,1:73
14,2:73
14,3:73
14,4:73
14,5:73
14,6:73
14,7:73
14,14:36
14,15:114
14,16:36
14,17:114
14,19:36
14,20:47
14,21:47
14,23:47
14,24:47
15,15:36
16,1:73
16,2:73
16,3:73
16,4:73
16,5:73
16,6:73
16,7:73
16,14:36
16,15:114
16,16:36
16,17:114
16,19:36
16,20:47
16,21:47
16,22:36
16,23:47
16,24:47
16,25:36
16,26:36
16,27:36
16,28:36
16,32:47
16,33:47
16,34:47
17,15:36
17,17:36
18,1:143
18,2:143
18,3:143
18,4:143
18,5:143
18,6:143
18,7:143
18,8:36
18,9:36
18,10:36
18,11:36
18,12:36
18,13:36
18,14:106
18,15:184
18,16:106
18,17:184
18,18:36
18,19:106
18,20:117
18,21:117
18,22:106
18,23:117
18,24:117
18,25:106
18,26:106
18,27:106
18,28:106
18,29:117
18,30:117
18,31:117
18,32:117
18,33:117
18,34:117
18,35:117
18,36:117
18,37:117
18,38:117
18,39:117
18,40:203
18,41:203
19,1:73
19,2:73
19,3:73
19,4:73
19,5:73
19,6:73
19,7:73
19,14:36
19,15:114
19,16:36
19,17:114
19,19:36
20,1:62
20,2:62
20,3:62
20,4:62
20,5:62
20,6:62
20,7:62
20,14:25
20,15:103
20,16:25
20,17:103
20,19:25
20,20:36
20,21:36
20,22:25
20,24:36
20,25:25
20,26:25
20,27:25
20,28:25
20,29:36
20,30:36
20,31:36
20,32:36
20,33:36
20,34:36
20,35:36
21,1:62
21,2:62
21,3:62
21,4:62
21,5:62
21,6:62
21,7:62
21,14:25
21,15:103
21,16:25
21,17:103
21,19:25
21,20:36
21,21:36
21,22:25
21,23:36
21,25:25
21,26:25
21,27:25
21,28:25
21,29:36
21,30:36
21,31:36
21,32:36
21,33:36
21,34:36
21,35:36
22,1:73
22,2:73
22,3:73
22,4:73
22,5:73
22,6:73
22,7:73
22,14:36
22,15:114
22,16:36
22,17:114
22,19:36
22,20:47
22,21:47
22,22:36
22,23:47
22,24:47
23,1:62
23,2:62
23,3:62
23,4:62
23,5:62
23,6:62
23,7:62
23,14:25
23,15:103
23,16:25
23,17:103
23,19:25
23,20:36
23,21:36
23,22:25
23,23:36
23,24:36
23,25:25
23,26:25
23,27:25
23,28:25
23,29:36
23,30:36
23,31:36
23,32:36
23,33:36
23,34:36
23,35:36
24,1:62
24,2:62
24,3:62
24,4:62
24,5:62
24,6:62
24,7:62
24,14:25
24,15:103
24,16:25
24,17:103
24,19:25
24,20:36
24,21:36
24,22:25
24,23:36
24,24:36
24,25:25
24,26:25
24,27:25
24,28:25
24,29:36
24,30:36
24,31:36
24,32:36
24,33:36
24,34:36
24,35:36
25,1:73
25,2:73
25,3:73
25,4:73
25,5:73
25,6:73
25,7:73
25,14:36
25,15:114
25,16:36
25,17:114
25,19:36
25,20:47
25,21:47
25,22:36
25,23:47
25,24:47
25,25:36
26,1:73
26,2:73
26,3:73
26,4:73
26,5:73
26,6:73
26,7:73
26,14:36
26,15:114
26,16:36
26,17:114
26,19:36
26,20:47
26,21:47
26,22:36
26,23:47
26,24:47
26,25:36
26,26:36
27,1:73
27,2:73
27,3:73
27,4:73
27,5:73
27,6:73
27,7:73
27,14:36
27,15:114
27,16:36
27,17:114
27,19:36
27,20:47
27,21:47
27,22:36
27,23:47
27,24:47
27,25:36
27,26:36
27,27:36
28,1:73
28,2:73
28,3:73
28,4:73
28,5:73
28,6:73
28,7:73
28,14:36
28,15:114
28,16:36
28,17:114
28,19:36
28,20:47
28,21:47
28,22:36
28,23:47
28,24:47
28,25:36
28,26:36
28,27:36
28,28:36
29,1:62
29,2:62
29,3:62
29,4:62
29,5:62
29,6:62
29,7:62
29,14:25
29,15:103
29,16:25
29,17:103
29,19:25
29,20:36
29,21:36
29,22:25
29,23:36
29,24:36
29,25:25
29,26:25
29,27:25
29,28:25
29,29:36
29,30:36
29,31:36
29,32:36
29,33:36
29,34:36
30,1:62
30,2:62
30,3:62
30,4:62
30,5:62
30,6:62
30,7:62
30,14:25
30,15:103
30,16:25
30,17:103
30,19:25
30,20:36
30,21:36
30,22:25
30,23:36
30,24:36
30,25:25
30,26:25
30,27:25
30,28:25
30,29:36
30,30:36
30,31:36
30,32:36
30,33:36
30,34:36
31,1:62
31,2:62
31,3:62
31,4:62
31,5:62
31,6:62
31,7:62
31,14:25
31,15:103
31,16:25
31,17:103
31,19:25
31,20:36
31,21:36
31,22:25
31,23:36
31,24:36
31,25:25
31,26:25
31,27:25
31,28:25
31,29:36
31,30:36
31,31:36
31,32:36
31,33:36
31,34:36
32,1:62
32,2:62
32,3:62
32,4:62
32,5:62
32,6:62
32,7:62
32,14:25
32,15:103
32,16:25
32,17:103
32,19:25
32,20:36
32,21:36
32,22:25
32,23:36
32,24:36
32,25:25
32,26:25
32,27:25
32,28:25
32,29:36
32,30:36
32,31:36
32,32:36
32,33:36
32,34:36
33,1:62
33,2:62
33,3:62
33,4:62
33,5:62
33,6:62
33,7:62
33,14:25
33,15:103
33,16:25
33,17:103
33,19:25
33,20:36
33,21:36
33,22:25
33,23:36
33,24:36
33,25:25
33,26:25
33,27:25
33,28:25
33,29:36
33,30:36
33,31:36
33,32:36
33,33:36
33,34:36
34,1:62
34,2:62
34,3:62
34,4:62
34,5:62
34,6:62
34,7:62
34,14:25
34,15:103
34,16:25
34,17:103
34,19:25
34,20:36
34,21:36
34,22:25
34,23:36
34,24:36
34,25:25
34,26:25
34,27:25
34,28:25
34,29:36
34,30:36
34,31:36
34,32:36
34,33:36
34,34:36
35,1:62
35,2:62
35,3:62
35,4:62
35,5:62
35,6:62
35,7:62
35,14:25
35,15:103
35,16:25
35,17:103
35,19:25
35,20:36
35,21:36
35,22:25
35,23:36
35,24:36
35,25:25
35,26:25
35,27:25
35,28:25
35,29:36
35,30:36
35,31:36
35,32:36
35,33:36
35,34:36
35,35:36
36,1:62
36,2:62
36,3:62
36,4:62
36,5:62
36,6:62
36,7:62
36,14:25
36,15:103
36,16:25
36,17:103
36,19:25
36,20:36
36,21:36
36,22:25
36,23:36
36,24:36
36,25:25
36,26:25
36,27:25
36,28:25
36,29:36
36,30:36
36,31:36
36,32:36
36,33:36
36,34:36
36,35:36
36,36:36
37,1:62
37,2:62
37,3:62
37,4:62
37,5:62
37,6:62
37,7:62
37,14:25
37,15:103
37,16:25
37,17:103
37,19:25
37,20:36
37,21:36
37,22:25
37,23:36
37,24:36
37,25:25
37,26:25
37,27:25
37,28:25
37,29:36
37,30:36
37,31:36
37,32:36
37,33:36
37,34:36
37,35:36
37,36:36
37,37:36
38,1:62
38,2:62
38,3:62
38,4:62
38,5:62
38,6:62
38,7:62
38,14:25
38,15:103
38,16:25
38,17:103
38,19:25
38,20:36
38,21:36
38,22:25
38,23:36
38,24:36
38,25:25
38,26:25
38,27:25
38,28:25
38,29:36
38,30:36
38,31:36
38,32:36
38,33:36
38,34:36
38,35:36
38,36:36
38,37:36
38,38:36
38,39:36
38,40:122
39,1:62
39,2:62
39,3:62
39,4:62
39,5:62
39,6:62
39,7:62
39,14:25
39,15:103
39,16:25
39,17:103
39,19:25
39,20:36
39,21:36
39,22:25
39,23:36
39,24:36
39,25:25
39,26:25
39,27:25
39,28:25
39,29:36
39,30:36
39,31:36
39,32:36
39,33:36
39,34:36
39,35:36
39,36:36
39,37:36
39,38:36
39,39:36
39,40:122
40,15:17
40,17:17
40,40:36
41,15:17
41,17:17
41,40:36
41,41:36
42,15:17
42,17:17
42,40:36
42,41:36
42,42:36
43,1:31
43,2:31
43,3:31
43,4:31
43,5:31
43,6:31
43,7:31
43,15:72
43,17:72
43,20:5
43,21:5
43,23:5
43,24:5
43,29:5
43,30:5
43,31:5
43,32:5
43,33:5
43,34:5
43,35:5
43,36:5
43,37:5
43,38:5
43,39:5
43,40:91
43,41:91
43,42:91
43,43:36
43,44:36
43,45:36
43,46:36
43,47:36
43,49:36
43,50:124
44,1:31
44,2:31
44,3:31
44,4:31
44,5:31
44,6:31
44,7:31
44,15:72
44,17:72
44,20:5
44,21:5
44,23:5
44,24:5
44,29:5
44,30:5
44,31:5
44,32:5
44,33:5
44,34:5
44,35:5
44,36:5
44,37:5
44,38:5
44,39:5
44,40:91
44,41:91
44,42:91
44,43:36
44,44:36
44,45:36
44,46:36
44,47:36
44,48:36
44,50:124
45,1:31
45,2:31
45,3:31
45,4:31
45,5:31
45,6:31
45,7:31
45,15:72
45,17:72
45,20:5
45,21:5
45,23:5
45,24:5
45,29:5
45,30:5
45,31:5
45,32:5
45,33:5
45,34:5
45,35:5
45,36:5
45,37:5
45,38:5
45,39:5
45,40:91
45,41:91
45,42:91
45,43:36
45,44:36
45,45:36
45,46:36
45,47:36
45,48:36
45,49:36
45,50:124
46,1:31
46,2:31
46,3:31
46,4:31
46,5:31
46,6:31
46,7:31
46,15:72
46,17:72
46,20:5
46,21:5
46,23:5
46,24:5
46,29:5
46,30:5
46,31:5
46,32:5
46,33:5
46,34:5
46,35:5
46,36:5
46,37:5
46,38:5
46,39:5
46,40:91
46,41:91
46,42:91
46,43:36
46,44:36
46,45:36
46,46:36
46,47:36
46,48:36
46,49:36
47,1:31
47,2:31
47,3:31
47,4:31
47,5:31
47,6:31
47,7:31
47,15:72
47,17:72
47,20:5
47,21:5
47,23:5
47,24:5
47,29:5
47,30:5
47,31:5
47,32:5
47,33:5
47,34:5
47,35:5
47,36:5
47,37:5
47,38:5
47,39:5
47,40:91
47,41:91
47,42:91
47,43:36
47,44:36
47,45:36
47,46:36
47,47:36
47,48:36
47,49:36
47,50:124
48,1:31
48,2:31
48,3:31
48,4:31
48,5:31
48,6:31
48,7:31
48,15:72
48,17:72
48,20:5
48,21:5
48,23:5
48,24:5
48,29:5
48,30:5
48,31:5
48,32:5
48,33:5
48,34:5
48,35:5
48,36:5
48,37:5
48,38:5
48,39:5
48,40:91
48,41:91
48,42:91
48,43:36
48,44:36
48,45:36
48,46:36
48,47:36
48,48:36
48,49:36
48,50:124
49,1:31
49,2:31
49,3:31
49,4:31
49,5:31
49,6:31
49,7:31
49,15:72
49,17:72
49,20:5
49,21:5
49,23:5
49,24:5
49,29:5
49,30:5
49,31:5
49,32:5
49,33:5
49,34:5
49,35:5
49,36:5
49,37:5
49,38:5
49,39:5
49,40:91
49,41:91
49,42:91
49,43:36
49,44:36
49,45:36
49,46:36
49,47:36
49,48:36
49,49:36
49,50:124
50,40:3
50,41:3
50,42:3
50,50:36
51,40:3
51,41:3
51,42:3
51,50:36
51,51:36
51,52:36
52,40:3
52,41:3
52,42:3
52,50:36
52,51:36
52,52:36
53,40:3
53,41:3
53,42:3
53,50:36
53,51:36
53,52:36
53,53:36

<end>

<optimal SALBP-1 value>
8


<rand seed>
467321153

